% Generated FlatZinc statistics:
%%%mzn-stat: paths=0
%%%mzn-stat: flatIntVars=469
%%%mzn-stat: flatIntConstraints=582
%%%mzn-stat: method="maximize"
%%%mzn-stat: flatTime=4.8547
%%%mzn-stat-end

=====UNKNOWN=====
%%%mzn-stat: nSolutions=0
%%%mzn-stat-end
